
Gurobi 7.5.2 (linux64) logging started Sun Jan  3 00:15:17 2021

Changed value of parameter LogFile to /home/aniket/python_scripts/Plasmids-Optimization/exp/2019-05-07__iterative_MILP_unweighted/feasibility_check/sample_39/1.1.1/nplasmids_1/MILP/m.log
   Prev: gurobi.log  Default: 
Changed value of parameter TimeLimit to 2400.0
   Prev: 1e+100  Min: 0.0  Max: 1e+100  Default: 1e+100
Optimize a model with 4067 rows, 1848 columns and 7347 nonzeros
Variable types: 691 continuous, 1157 integer (467 binary)
Coefficient statistics:
  Matrix range     [1e-02, 5e+05]
  Objective range  [1e-03, 1e+00]
  Bounds range     [1e+00, 1e+00]
  RHS range        [5e-01, 2e+05]
Presolve removed 3698 rows and 1572 columns
Presolve time: 0.01s
Presolved: 369 rows, 276 columns, 1078 nonzeros
Variable types: 58 continuous, 218 integer (155 binary)

Root relaxation: infeasible, 130 iterations, 0.00 seconds

    Nodes    |    Current Node    |     Objective Bounds      |     Work
 Expl Unexpl |  Obj  Depth IntInf | Incumbent    BestBd   Gap | It/Node Time

     0     0 infeasible    0               - infeasible      -     -    0s

Explored 0 nodes (130 simplex iterations) in 0.02 seconds
Thread count was 4 (of 4 available processors)

Solution count 0

Model is infeasible or unbounded
Best objective -, best bound -, gap -
Presolve removed 3823 rows and 1639 columns
Presolve time: 0.01s
Presolved: 244 rows, 209 columns, 735 nonzeros
Variable types: 0 continuous, 209 integer (146 binary)

Root relaxation: infeasible, 137 iterations, 0.00 seconds

    Nodes    |    Current Node    |     Objective Bounds      |     Work
 Expl Unexpl |  Obj  Depth IntInf | Incumbent    BestBd   Gap | It/Node Time

     0     0 infeasible    0               - infeasible      -     -    0s

Explored 0 nodes (137 simplex iterations) in 0.02 seconds
Thread count was 4 (of 4 available processors)

Solution count 0

Model is infeasible
Best objective -, best bound -, gap -

Computing Irreducible Inconsistent Subsystem (IIS)...

      Constraints           Bounds       Runtime
     Min       Max       Min      Max
------------------------------------------------
        0     3465         0     1381         0s
      452      452         1        1         2s

IIS computed: 452 constraints, 1 bounds
IIS runtime: 1.71 seconds
Warning: linear constraint 0 and linear constraint 1 have the same name "link_ubd"
